proyfinal/src/viki/013/experimentInOfficeAgust.take6.output/94c2e05d-daca-4aa0-b6b9-834ec824e799.als.dat
{'cnf.clauses': '118081',
 'cnf.totvars': '69608',
 'conflict literals': '1',
 'conflicts': '2',
 'decisions': '1472',
 'memused.mb': '18.26',
 'outcome': 'UNSAT',
 'propagations': '19141',
 'restarts': '1',
 'solver.msecs': 30,
 'task.msecs': 75}
