proyfinal/src/viki/013/experimentInOfficeAgust.take6.output/94c2e05d-daca-4aa0-b6b9-834ec824e799.als.out
Reading from standard input... Use '--help' for help.
============================[ Problem Statistics ]=============================
|                                                                             |
|  Number of variables:         69608                                         |
|  Number of clauses:          118081                                         |
|  Parse time:                   0.02 s                                       |
|                                                                             |
============================[ Search Statistics ]==============================
| Conflicts |          ORIGINAL         |          LEARNT          | Progress |
|           |    Vars  Clauses Literals |    Limit  Clauses Lit/Cl |          |
===============================================================================
===============================================================================
restarts              : 1
conflicts             : 2              (67 /sec)
decisions             : 1472           (0.00 % random) (49001 /sec)
propagations          : 19141          (637184 /sec)
conflict literals     : 1              (0.00 % deleted)
Memory used           : 18.26 MB
CPU time              : 0.03004 s

UNSATISFIABLE
